% demand
num_movements = 23;
loading_factor = [1800, 1700, 1050, 800, 1500, 1450, 1450, 1100, 1050, 1400, 950, 800, 950, 1450, 1450, 1100, 850, 1500, 1100, 1950, 1150, 1400, 1400];
pickup_time = [0, 0, 0, 1, 1, 1, 2, 2, 3, 4, 4, 4, 5, 5, 5, 9, 9, 9, 10, 11, 11, 11, 11];
delivery_time = [1, 1, 1, 3, 2, 3, 3, 3, 4, 9, 9, 9, 9, 9, 8, 10, 10, 10, 13, 13, 13, 13, 13];

% transporter definition
total_capacity = 7000;
num_decks = 3;
capacity = [3000, 1000, 3000];

% ways out of decks
num_ways_out = 1;
paths_out = array3d(decks, ways_out, decks, [
% ways out of deck d1
2, 3, 0, 

% ways out of deck d2
3, 0, 0, 

% ways out of deck d3
0, 0, 0,	

]);

